p cnf 336 1258
1 2 3 4 5 6 0
-1 217 0
-2 218 0
-217 218 0
-217 -2 0
-3 219 0
-218 219 0
-218 -3 0
-4 220 0
-219 220 0
-219 -4 0
-5 221 0
-220 221 0
-220 -5 0
-221 -6 0
-1 37 0
-1 7 0
-2 38 0
-2 8 0
-3 39 0
-3 9 0
-4 40 0
-4 10 0
-5 41 0
-5 11 0
-6 42 0
-6 12 0
-8 0
-9 0
-10 0
-11 0
-12 0
7 0
1 13 43 0
-1 -13 0
-1 -43 0
-13 -43 0
-13 0
-14 0
-15 0
-17 0
-18 0
16 0
10 22 52 0
-10 -22 0
-10 -52 0
-22 -52 0
-19 0
-20 0
-21 0
-22 0
-23 0
24 0
18 30 60 0
-18 -30 0
-18 -60 0
-30 -60 0
25 26 27 28 29 30 0
-25 222 0
-26 223 0
-222 223 0
-222 -26 0
-27 224 0
-223 224 0
-223 -27 0
-28 225 0
-224 225 0
-224 -28 0
-29 226 0
-225 226 0
-225 -29 0
-226 -30 0
-25 19 31 0
-25 19 61 0
-25 31 61 0
-26 20 32 0
-26 20 62 0
-26 32 62 0
-27 21 33 0
-27 21 63 0
-27 33 63 0
-28 22 34 0
-28 22 64 0
-28 34 64 0
-29 23 35 0
-29 23 65 0
-29 35 65 0
-30 24 36 0
-30 24 66 0
-30 36 66 0
-25 -19 -31 -61 0
-26 -20 -32 -62 0
-27 -21 -33 -63 0
-28 -22 -34 -64 0
-29 -23 -35 -65 0
-30 -24 -36 -66 0
31 32 33 34 35 36 0
-31 227 0
-32 228 0
-227 228 0
-227 -32 0
-33 229 0
-228 229 0
-228 -33 0
-34 230 0
-229 230 0
-229 -34 0
-35 231 0
-230 231 0
-230 -35 0
-231 -36 0
-31 67 0
-31 25 0
-32 68 0
-32 26 0
-33 69 0
-33 27 0
-34 70 0
-34 28 0
-35 71 0
-35 29 0
-36 72 0
-36 30 0
37 38 39 40 41 42 0
-37 232 0
-38 233 0
-232 233 0
-232 -38 0
-39 234 0
-233 234 0
-233 -39 0
-40 235 0
-234 235 0
-234 -40 0
-41 236 0
-235 236 0
-235 -41 0
-236 -42 0
-37 73 43 0
-37 73 1 0
-37 43 1 0
-38 74 44 0
-38 74 2 0
-38 44 2 0
-39 75 45 0
-39 75 3 0
-39 45 3 0
-40 76 46 0
-40 76 4 0
-40 46 4 0
-41 77 47 0
-41 77 5 0
-41 47 5 0
-42 78 48 0
-42 78 6 0
-42 48 6 0
-37 -73 -43 -1 0
-38 -74 -44 -2 0
-39 -75 -45 -3 0
-40 -76 -46 -4 0
-41 -77 -47 -5 0
-42 -78 -48 -6 0
-43 0
-44 0
-46 0
-47 0
-48 0
45 0
81 51 9 39 0
-81 -51 0
-81 -9 0
-81 -39 0
-51 -9 0
-51 -39 0
-9 -39 0
49 50 51 52 53 54 0
-49 237 0
-50 238 0
-237 238 0
-237 -50 0
-51 239 0
-238 239 0
-238 -51 0
-52 240 0
-239 240 0
-239 -52 0
-53 241 0
-240 241 0
-240 -53 0
-241 -54 0
-49 85 55 13 0
-49 85 55 43 0
-49 85 13 43 0
-49 55 13 43 0
-50 86 56 14 0
-50 86 56 44 0
-50 86 14 44 0
-50 56 14 44 0
-51 87 57 15 0
-51 87 57 45 0
-51 87 15 45 0
-51 57 15 45 0
-52 88 58 16 0
-52 88 58 46 0
-52 88 16 46 0
-52 58 16 46 0
-53 89 59 17 0
-53 89 59 47 0
-53 89 17 47 0
-53 59 17 47 0
-54 90 60 18 0
-54 90 60 48 0
-54 90 18 48 0
-54 60 18 48 0
-49 -85 -55 -13 0
-49 -85 -55 -43 0
-49 -85 -13 -43 0
-49 -55 -13 -43 0
-50 -86 -56 -14 0
-50 -86 -56 -44 0
-50 -86 -14 -44 0
-50 -56 -14 -44 0
-51 -87 -57 -15 0
-51 -87 -57 -45 0
-51 -87 -15 -45 0
-51 -57 -15 -45 0
-52 -88 -58 -16 0
-52 -88 -58 -46 0
-52 -88 -16 -46 0
-52 -58 -16 -46 0
-53 -89 -59 -17 0
-53 -89 -59 -47 0
-53 -89 -17 -47 0
-53 -59 -17 -47 0
-54 -90 -60 -18 0
-54 -90 -60 -48 0
-54 -90 -18 -48 0
-54 -60 -18 -48 0
-55 0
-56 0
-57 0
-58 0
-60 0
59 0
95 65 23 53 0
-95 -65 0
-95 -23 0
-95 -53 0
-65 -23 0
-65 -53 0
-23 -53 0
61 62 63 64 65 66 0
-61 242 0
-62 243 0
-242 243 0
-242 -62 0
-63 244 0
-243 244 0
-243 -63 0
-64 245 0
-244 245 0
-244 -64 0
-65 246 0
-245 246 0
-245 -65 0
-246 -66 0
-61 97 67 25 0
-61 97 67 55 0
-61 97 25 55 0
-61 67 25 55 0
-62 98 68 26 0
-62 98 68 56 0
-62 98 26 56 0
-62 68 26 56 0
-63 99 69 27 0
-63 99 69 57 0
-63 99 27 57 0
-63 69 27 57 0
-64 100 70 28 0
-64 100 70 58 0
-64 100 28 58 0
-64 70 28 58 0
-65 101 71 29 0
-65 101 71 59 0
-65 101 29 59 0
-65 71 29 59 0
-66 102 72 30 0
-66 102 72 60 0
-66 102 30 60 0
-66 72 30 60 0
-61 -97 -67 -25 0
-61 -97 -67 -55 0
-61 -97 -25 -55 0
-61 -67 -25 -55 0
-62 -98 -68 -26 0
-62 -98 -68 -56 0
-62 -98 -26 -56 0
-62 -68 -26 -56 0
-63 -99 -69 -27 0
-63 -99 -69 -57 0
-63 -99 -27 -57 0
-63 -69 -27 -57 0
-64 -100 -70 -28 0
-64 -100 -70 -58 0
-64 -100 -28 -58 0
-64 -70 -28 -58 0
-65 -101 -71 -29 0
-65 -101 -71 -59 0
-65 -101 -29 -59 0
-65 -71 -29 -59 0
-66 -102 -72 -30 0
-66 -102 -72 -60 0
-66 -102 -30 -60 0
-66 -72 -30 -60 0
67 68 69 70 71 72 0
-67 247 0
-68 248 0
-247 248 0
-247 -68 0
-69 249 0
-248 249 0
-248 -69 0
-70 250 0
-249 250 0
-249 -70 0
-71 251 0
-250 251 0
-250 -71 0
-251 -72 0
-67 103 61 0
-67 103 31 0
-67 61 31 0
-68 104 62 0
-68 104 32 0
-68 62 32 0
-69 105 63 0
-69 105 33 0
-69 63 33 0
-70 106 64 0
-70 106 34 0
-70 64 34 0
-71 107 65 0
-71 107 35 0
-71 65 35 0
-72 108 66 0
-72 108 36 0
-72 66 36 0
-67 -103 -61 -31 0
-68 -104 -62 -32 0
-69 -105 -63 -33 0
-70 -106 -64 -34 0
-71 -107 -65 -35 0
-72 -108 -66 -36 0
73 74 75 76 77 78 0
-73 252 0
-74 253 0
-252 253 0
-252 -74 0
-75 254 0
-253 254 0
-253 -75 0
-76 255 0
-254 255 0
-254 -76 0
-77 256 0
-255 256 0
-255 -77 0
-256 -78 0
-73 109 79 0
-73 109 37 0
-73 79 37 0
-74 110 80 0
-74 110 38 0
-74 80 38 0
-75 111 81 0
-75 111 39 0
-75 81 39 0
-76 112 82 0
-76 112 40 0
-76 82 40 0
-77 113 83 0
-77 113 41 0
-77 83 41 0
-78 114 84 0
-78 114 42 0
-78 84 42 0
-73 -109 -79 -37 0
-74 -110 -80 -38 0
-75 -111 -81 -39 0
-76 -112 -82 -40 0
-77 -113 -83 -41 0
-78 -114 -84 -42 0
79 80 81 82 83 84 0
-79 257 0
-80 258 0
-257 258 0
-257 -80 0
-81 259 0
-258 259 0
-258 -81 0
-82 260 0
-259 260 0
-259 -82 0
-83 261 0
-260 261 0
-260 -83 0
-261 -84 0
-79 115 85 43 0
-79 115 85 73 0
-79 115 43 73 0
-79 85 43 73 0
-80 116 86 44 0
-80 116 86 74 0
-80 116 44 74 0
-80 86 44 74 0
-81 117 87 45 0
-81 117 87 75 0
-81 117 45 75 0
-81 87 45 75 0
-82 118 88 46 0
-82 118 88 76 0
-82 118 46 76 0
-82 88 46 76 0
-83 119 89 47 0
-83 119 89 77 0
-83 119 47 77 0
-83 89 47 77 0
-84 120 90 48 0
-84 120 90 78 0
-84 120 48 78 0
-84 90 48 78 0
-79 -115 -85 -43 0
-79 -115 -85 -73 0
-79 -115 -43 -73 0
-79 -85 -43 -73 0
-80 -116 -86 -44 0
-80 -116 -86 -74 0
-80 -116 -44 -74 0
-80 -86 -44 -74 0
-81 -117 -87 -45 0
-81 -117 -87 -75 0
-81 -117 -45 -75 0
-81 -87 -45 -75 0
-82 -118 -88 -46 0
-82 -118 -88 -76 0
-82 -118 -46 -76 0
-82 -88 -46 -76 0
-83 -119 -89 -47 0
-83 -119 -89 -77 0
-83 -119 -47 -77 0
-83 -89 -47 -77 0
-84 -120 -90 -48 0
-84 -120 -90 -78 0
-84 -120 -48 -78 0
-84 -90 -48 -78 0
85 86 87 88 89 90 0
-85 262 0
-86 263 0
-262 263 0
-262 -86 0
-87 264 0
-263 264 0
-263 -87 0
-88 265 0
-264 265 0
-264 -88 0
-89 266 0
-265 266 0
-265 -89 0
-266 -90 0
-85 121 91 49 0
-85 121 91 79 0
-85 121 49 79 0
-85 91 49 79 0
-86 122 92 50 0
-86 122 92 80 0
-86 122 50 80 0
-86 92 50 80 0
-87 123 93 51 0
-87 123 93 81 0
-87 123 51 81 0
-87 93 51 81 0
-88 124 94 52 0
-88 124 94 82 0
-88 124 52 82 0
-88 94 52 82 0
-89 125 95 53 0
-89 125 95 83 0
-89 125 53 83 0
-89 95 53 83 0
-90 126 96 54 0
-90 126 96 84 0
-90 126 54 84 0
-90 96 54 84 0
-85 -121 -91 -49 0
-85 -121 -91 -79 0
-85 -121 -49 -79 0
-85 -91 -49 -79 0
-86 -122 -92 -50 0
-86 -122 -92 -80 0
-86 -122 -50 -80 0
-86 -92 -50 -80 0
-87 -123 -93 -51 0
-87 -123 -93 -81 0
-87 -123 -51 -81 0
-87 -93 -51 -81 0
-88 -124 -94 -52 0
-88 -124 -94 -82 0
-88 -124 -52 -82 0
-88 -94 -52 -82 0
-89 -125 -95 -53 0
-89 -125 -95 -83 0
-89 -125 -53 -83 0
-89 -95 -53 -83 0
-90 -126 -96 -54 0
-90 -126 -96 -84 0
-90 -126 -54 -84 0
-90 -96 -54 -84 0
91 92 93 94 95 96 0
-91 267 0
-92 268 0
-267 268 0
-267 -92 0
-93 269 0
-268 269 0
-268 -93 0
-94 270 0
-269 270 0
-269 -94 0
-95 271 0
-270 271 0
-270 -95 0
-271 -96 0
-91 127 97 55 0
-91 127 97 85 0
-91 127 55 85 0
-91 97 55 85 0
-92 128 98 56 0
-92 128 98 86 0
-92 128 56 86 0
-92 98 56 86 0
-93 129 99 57 0
-93 129 99 87 0
-93 129 57 87 0
-93 99 57 87 0
-94 130 100 58 0
-94 130 100 88 0
-94 130 58 88 0
-94 100 58 88 0
-95 131 101 59 0
-95 131 101 89 0
-95 131 59 89 0
-95 101 59 89 0
-96 132 102 60 0
-96 132 102 90 0
-96 132 60 90 0
-96 102 60 90 0
-91 -127 -97 -55 0
-91 -127 -97 -85 0
-91 -127 -55 -85 0
-91 -97 -55 -85 0
-92 -128 -98 -56 0
-92 -128 -98 -86 0
-92 -128 -56 -86 0
-92 -98 -56 -86 0
-93 -129 -99 -57 0
-93 -129 -99 -87 0
-93 -129 -57 -87 0
-93 -99 -57 -87 0
-94 -130 -100 -58 0
-94 -130 -100 -88 0
-94 -130 -58 -88 0
-94 -100 -58 -88 0
-95 -131 -101 -59 0
-95 -131 -101 -89 0
-95 -131 -59 -89 0
-95 -101 -59 -89 0
-96 -132 -102 -60 0
-96 -132 -102 -90 0
-96 -132 -60 -90 0
-96 -102 -60 -90 0
-97 0
-98 0
-99 0
-100 0
-102 0
101 0
137 107 65 95 0
-137 -107 0
-137 -65 0
-137 -95 0
-107 -65 0
-107 -95 0
-65 -95 0
-103 0
-104 0
-105 0
-106 0
-107 0
108 0
144 102 72 0
-144 -102 0
-144 -72 0
-102 -72 0
109 110 111 112 113 114 0
-109 272 0
-110 273 0
-272 273 0
-272 -110 0
-111 274 0
-273 274 0
-273 -111 0
-112 275 0
-274 275 0
-274 -112 0
-113 276 0
-275 276 0
-275 -113 0
-276 -114 0
-109 145 115 0
-109 145 73 0
-109 115 73 0
-110 146 116 0
-110 146 74 0
-110 116 74 0
-111 147 117 0
-111 147 75 0
-111 117 75 0
-112 148 118 0
-112 148 76 0
-112 118 76 0
-113 149 119 0
-113 149 77 0
-113 119 77 0
-114 150 120 0
-114 150 78 0
-114 120 78 0
-109 -145 -115 -73 0
-110 -146 -116 -74 0
-111 -147 -117 -75 0
-112 -148 -118 -76 0
-113 -149 -119 -77 0
-114 -150 -120 -78 0
115 116 117 118 119 120 0
-115 277 0
-116 278 0
-277 278 0
-277 -116 0
-117 279 0
-278 279 0
-278 -117 0
-118 280 0
-279 280 0
-279 -118 0
-119 281 0
-280 281 0
-280 -119 0
-281 -120 0
-115 151 121 79 0
-115 151 121 109 0
-115 151 79 109 0
-115 121 79 109 0
-116 152 122 80 0
-116 152 122 110 0
-116 152 80 110 0
-116 122 80 110 0
-117 153 123 81 0
-117 153 123 111 0
-117 153 81 111 0
-117 123 81 111 0
-118 154 124 82 0
-118 154 124 112 0
-118 154 82 112 0
-118 124 82 112 0
-119 155 125 83 0
-119 155 125 113 0
-119 155 83 113 0
-119 125 83 113 0
-120 156 126 84 0
-120 156 126 114 0
-120 156 84 114 0
-120 126 84 114 0
-115 -151 -121 -79 0
-115 -151 -121 -109 0
-115 -151 -79 -109 0
-115 -121 -79 -109 0
-116 -152 -122 -80 0
-116 -152 -122 -110 0
-116 -152 -80 -110 0
-116 -122 -80 -110 0
-117 -153 -123 -81 0
-117 -153 -123 -111 0
-117 -153 -81 -111 0
-117 -123 -81 -111 0
-118 -154 -124 -82 0
-118 -154 -124 -112 0
-118 -154 -82 -112 0
-118 -124 -82 -112 0
-119 -155 -125 -83 0
-119 -155 -125 -113 0
-119 -155 -83 -113 0
-119 -125 -83 -113 0
-120 -156 -126 -84 0
-120 -156 -126 -114 0
-120 -156 -84 -114 0
-120 -126 -84 -114 0
-121 0
-122 0
-124 0
-125 0
-126 0
123 0
159 129 87 117 0
-159 -129 0
-159 -87 0
-159 -117 0
-129 -87 0
-129 -117 0
-87 -117 0
127 128 129 130 131 132 0
-127 282 0
-128 283 0
-282 283 0
-282 -128 0
-129 284 0
-283 284 0
-283 -129 0
-130 285 0
-284 285 0
-284 -130 0
-131 286 0
-285 286 0
-285 -131 0
-286 -132 0
-127 163 133 91 0
-127 163 133 121 0
-127 163 91 121 0
-127 133 91 121 0
-128 164 134 92 0
-128 164 134 122 0
-128 164 92 122 0
-128 134 92 122 0
-129 165 135 93 0
-129 165 135 123 0
-129 165 93 123 0
-129 135 93 123 0
-130 166 136 94 0
-130 166 136 124 0
-130 166 94 124 0
-130 136 94 124 0
-131 167 137 95 0
-131 167 137 125 0
-131 167 95 125 0
-131 137 95 125 0
-132 168 138 96 0
-132 168 138 126 0
-132 168 96 126 0
-132 138 96 126 0
-127 -163 -133 -91 0
-127 -163 -133 -121 0
-127 -163 -91 -121 0
-127 -133 -91 -121 0
-128 -164 -134 -92 0
-128 -164 -134 -122 0
-128 -164 -92 -122 0
-128 -134 -92 -122 0
-129 -165 -135 -93 0
-129 -165 -135 -123 0
-129 -165 -93 -123 0
-129 -135 -93 -123 0
-130 -166 -136 -94 0
-130 -166 -136 -124 0
-130 -166 -94 -124 0
-130 -136 -94 -124 0
-131 -167 -137 -95 0
-131 -167 -137 -125 0
-131 -167 -95 -125 0
-131 -137 -95 -125 0
-132 -168 -138 -96 0
-132 -168 -138 -126 0
-132 -168 -96 -126 0
-132 -138 -96 -126 0
133 134 135 136 137 138 0
-133 287 0
-134 288 0
-287 288 0
-287 -134 0
-135 289 0
-288 289 0
-288 -135 0
-136 290 0
-289 290 0
-289 -136 0
-137 291 0
-290 291 0
-290 -137 0
-291 -138 0
-133 169 139 97 0
-133 169 139 127 0
-133 169 97 127 0
-133 139 97 127 0
-134 170 140 98 0
-134 170 140 128 0
-134 170 98 128 0
-134 140 98 128 0
-135 171 141 99 0
-135 171 141 129 0
-135 171 99 129 0
-135 141 99 129 0
-136 172 142 100 0
-136 172 142 130 0
-136 172 100 130 0
-136 142 100 130 0
-137 173 143 101 0
-137 173 143 131 0
-137 173 101 131 0
-137 143 101 131 0
-138 174 144 102 0
-138 174 144 132 0
-138 174 102 132 0
-138 144 102 132 0
-133 -169 -139 -97 0
-133 -169 -139 -127 0
-133 -169 -97 -127 0
-133 -139 -97 -127 0
-134 -170 -140 -98 0
-134 -170 -140 -128 0
-134 -170 -98 -128 0
-134 -140 -98 -128 0
-135 -171 -141 -99 0
-135 -171 -141 -129 0
-135 -171 -99 -129 0
-135 -141 -99 -129 0
-136 -172 -142 -100 0
-136 -172 -142 -130 0
-136 -172 -100 -130 0
-136 -142 -100 -130 0
-137 -173 -143 -101 0
-137 -173 -143 -131 0
-137 -173 -101 -131 0
-137 -143 -101 -131 0
-138 -174 -144 -102 0
-138 -174 -144 -132 0
-138 -174 -102 -132 0
-138 -144 -102 -132 0
-140 0
-141 0
-142 0
-143 0
-144 0
139 0
175 133 103 0
-175 -133 0
-175 -103 0
-133 -103 0
145 146 147 148 149 150 0
-145 292 0
-146 293 0
-292 293 0
-292 -146 0
-147 294 0
-293 294 0
-293 -147 0
-148 295 0
-294 295 0
-294 -148 0
-149 296 0
-295 296 0
-295 -149 0
-296 -150 0
-145 181 151 0
-145 181 109 0
-145 151 109 0
-146 182 152 0
-146 182 110 0
-146 152 110 0
-147 183 153 0
-147 183 111 0
-147 153 111 0
-148 184 154 0
-148 184 112 0
-148 154 112 0
-149 185 155 0
-149 185 113 0
-149 155 113 0
-150 186 156 0
-150 186 114 0
-150 156 114 0
-145 -181 -151 -109 0
-146 -182 -152 -110 0
-147 -183 -153 -111 0
-148 -184 -154 -112 0
-149 -185 -155 -113 0
-150 -186 -156 -114 0
-151 0
-153 0
-154 0
-155 0
-156 0
152 0
188 158 116 146 0
-188 -158 0
-188 -116 0
-188 -146 0
-158 -116 0
-158 -146 0
-116 -146 0
157 158 159 160 161 162 0
-157 297 0
-158 298 0
-297 298 0
-297 -158 0
-159 299 0
-298 299 0
-298 -159 0
-160 300 0
-299 300 0
-299 -160 0
-161 301 0
-300 301 0
-300 -161 0
-301 -162 0
-157 193 163 121 0
-157 193 163 151 0
-157 193 121 151 0
-157 163 121 151 0
-158 194 164 122 0
-158 194 164 152 0
-158 194 122 152 0
-158 164 122 152 0
-159 195 165 123 0
-159 195 165 153 0
-159 195 123 153 0
-159 165 123 153 0
-160 196 166 124 0
-160 196 166 154 0
-160 196 124 154 0
-160 166 124 154 0
-161 197 167 125 0
-161 197 167 155 0
-161 197 125 155 0
-161 167 125 155 0
-162 198 168 126 0
-162 198 168 156 0
-162 198 126 156 0
-162 168 126 156 0
-157 -193 -163 -121 0
-157 -193 -163 -151 0
-157 -193 -121 -151 0
-157 -163 -121 -151 0
-158 -194 -164 -122 0
-158 -194 -164 -152 0
-158 -194 -122 -152 0
-158 -164 -122 -152 0
-159 -195 -165 -123 0
-159 -195 -165 -153 0
-159 -195 -123 -153 0
-159 -165 -123 -153 0
-160 -196 -166 -124 0
-160 -196 -166 -154 0
-160 -196 -124 -154 0
-160 -166 -124 -154 0
-161 -197 -167 -125 0
-161 -197 -167 -155 0
-161 -197 -125 -155 0
-161 -167 -125 -155 0
-162 -198 -168 -126 0
-162 -198 -168 -156 0
-162 -198 -126 -156 0
-162 -168 -126 -156 0
-163 0
-165 0
-166 0
-167 0
-168 0
164 0
200 170 128 158 0
-200 -170 0
-200 -128 0
-200 -158 0
-170 -128 0
-170 -158 0
-128 -158 0
-169 0
-170 0
-171 0
-173 0
-174 0
172 0
208 178 136 166 0
-208 -178 0
-208 -136 0
-208 -166 0
-178 -136 0
-178 -166 0
-136 -166 0
175 176 177 178 179 180 0
-175 302 0
-176 303 0
-302 303 0
-302 -176 0
-177 304 0
-303 304 0
-303 -177 0
-178 305 0
-304 305 0
-304 -178 0
-179 306 0
-305 306 0
-305 -179 0
-306 -180 0
-175 211 169 0
-175 211 139 0
-175 169 139 0
-176 212 170 0
-176 212 140 0
-176 170 140 0
-177 213 171 0
-177 213 141 0
-177 171 141 0
-178 214 172 0
-178 214 142 0
-178 172 142 0
-179 215 173 0
-179 215 143 0
-179 173 143 0
-180 216 174 0
-180 216 144 0
-180 174 144 0
-175 -211 -169 -139 0
-176 -212 -170 -140 0
-177 -213 -171 -141 0
-178 -214 -172 -142 0
-179 -215 -173 -143 0
-180 -216 -174 -144 0
181 182 183 184 185 186 0
-181 307 0
-182 308 0
-307 308 0
-307 -182 0
-183 309 0
-308 309 0
-308 -183 0
-184 310 0
-309 310 0
-309 -184 0
-185 311 0
-310 311 0
-310 -185 0
-311 -186 0
-181 145 0
-181 187 0
-182 146 0
-182 188 0
-183 147 0
-183 189 0
-184 148 0
-184 190 0
-185 149 0
-185 191 0
-186 150 0
-186 192 0
187 188 189 190 191 192 0
-187 312 0
-188 313 0
-312 313 0
-312 -188 0
-189 314 0
-313 314 0
-313 -189 0
-190 315 0
-314 315 0
-314 -190 0
-191 316 0
-315 316 0
-315 -191 0
-316 -192 0
-187 151 193 0
-187 151 181 0
-187 193 181 0
-188 152 194 0
-188 152 182 0
-188 194 182 0
-189 153 195 0
-189 153 183 0
-189 195 183 0
-190 154 196 0
-190 154 184 0
-190 196 184 0
-191 155 197 0
-191 155 185 0
-191 197 185 0
-192 156 198 0
-192 156 186 0
-192 198 186 0
-187 -151 -193 -181 0
-188 -152 -194 -182 0
-189 -153 -195 -183 0
-190 -154 -196 -184 0
-191 -155 -197 -185 0
-192 -156 -198 -186 0
193 194 195 196 197 198 0
-193 317 0
-194 318 0
-317 318 0
-317 -194 0
-195 319 0
-318 319 0
-318 -195 0
-196 320 0
-319 320 0
-319 -196 0
-197 321 0
-320 321 0
-320 -197 0
-321 -198 0
-193 157 199 0
-193 157 187 0
-193 199 187 0
-194 158 200 0
-194 158 188 0
-194 200 188 0
-195 159 201 0
-195 159 189 0
-195 201 189 0
-196 160 202 0
-196 160 190 0
-196 202 190 0
-197 161 203 0
-197 161 191 0
-197 203 191 0
-198 162 204 0
-198 162 192 0
-198 204 192 0
-193 -157 -199 -187 0
-194 -158 -200 -188 0
-195 -159 -201 -189 0
-196 -160 -202 -190 0
-197 -161 -203 -191 0
-198 -162 -204 -192 0
199 200 201 202 203 204 0
-199 322 0
-200 323 0
-322 323 0
-322 -200 0
-201 324 0
-323 324 0
-323 -201 0
-202 325 0
-324 325 0
-324 -202 0
-203 326 0
-325 326 0
-325 -203 0
-326 -204 0
-199 163 205 0
-199 163 193 0
-199 205 193 0
-200 164 206 0
-200 164 194 0
-200 206 194 0
-201 165 207 0
-201 165 195 0
-201 207 195 0
-202 166 208 0
-202 166 196 0
-202 208 196 0
-203 167 209 0
-203 167 197 0
-203 209 197 0
-204 168 210 0
-204 168 198 0
-204 210 198 0
-199 -163 -205 -193 0
-200 -164 -206 -194 0
-201 -165 -207 -195 0
-202 -166 -208 -196 0
-203 -167 -209 -197 0
-204 -168 -210 -198 0
205 206 207 208 209 210 0
-205 327 0
-206 328 0
-327 328 0
-327 -206 0
-207 329 0
-328 329 0
-328 -207 0
-208 330 0
-329 330 0
-329 -208 0
-209 331 0
-330 331 0
-330 -209 0
-331 -210 0
-205 169 211 0
-205 169 199 0
-205 211 199 0
-206 170 212 0
-206 170 200 0
-206 212 200 0
-207 171 213 0
-207 171 201 0
-207 213 201 0
-208 172 214 0
-208 172 202 0
-208 214 202 0
-209 173 215 0
-209 173 203 0
-209 215 203 0
-210 174 216 0
-210 174 204 0
-210 216 204 0
-205 -169 -211 -199 0
-206 -170 -212 -200 0
-207 -171 -213 -201 0
-208 -172 -214 -202 0
-209 -173 -215 -203 0
-210 -174 -216 -204 0
211 212 213 214 215 216 0
-211 332 0
-212 333 0
-332 333 0
-332 -212 0
-213 334 0
-333 334 0
-333 -213 0
-214 335 0
-334 335 0
-334 -214 0
-215 336 0
-335 336 0
-335 -215 0
-336 -216 0
-211 175 0
-211 205 0
-212 176 0
-212 206 0
-213 177 0
-213 207 0
-214 178 0
-214 208 0
-215 179 0
-215 209 0
-216 180 0
-216 210 0
37 49 61 67 0
73 79 85 91 0
49 85 157 193 0
91 127 199 0
25 61 133 205 0
50 86 158 194 0
75 81 87 93 0
40 52 64 70 0
76 82 88 94 0
112 118 130 136 0
94 130 202 0
42 54 66 72 0
30 66 138 210 0